Set parameter TokenServer to value "hpc-licenses.hpcc.usc.edu"
Set parameter TimeLimit to value 3600
Gurobi Optimizer version 9.5.1 build v9.5.1rc2 (linux64)
Thread count: 20 physical cores, 20 logical processors, using up to 20 threads
Optimize a model with 6006 rows, 4529 columns and 23034 nonzeros
Model fingerprint: 0x247c576c
Variable types: 4506 continuous, 23 integer (23 binary)
Coefficient statistics:
  Matrix range     [1e+00, 1e+00]
  Objective range  [2e-03, 1e+00]
  Bounds range     [1e+00, 1e+00]
  RHS range        [1e+00, 1e+00]
Found heuristic solution: objective 273.3127240
Presolve removed 1520 rows and 1515 columns
Presolve time: 0.09s
Presolved: 4486 rows, 3014 columns, 20481 nonzeros
Variable types: 2994 continuous, 20 integer (20 binary)

Root relaxation: objective 2.893256e+02, 2522 iterations, 0.10 seconds (0.12 work units)

    Nodes    |    Current Node    |     Objective Bounds      |     Work
 Expl Unexpl |  Obj  Depth IntInf | Incumbent    BestBd   Gap | It/Node Time

     0     0  289.32561    0    2  273.31272  289.32561  5.86%     -    0s
H    0     0                     278.5278279  289.32561  3.88%     -    0s
H    0     0                     279.2252598  289.32561  3.62%     -    0s
H    0     0                     288.9909956  289.09526  0.04%     -    0s
     0     0  289.09526    0    2  288.99100  289.09526  0.04%     -    0s

Cutting planes:
  Gomory: 3
  MIR: 458
  RLT: 4
  Relax-and-lift: 29

Explored 1 nodes (2588 simplex iterations) in 0.42 seconds (0.26 work units)
Thread count was 20 (of 20 available processors)

Solution count 4: 288.991 279.225 278.528 273.313 

Optimal solution found (tolerance 1.00e-04)
Best objective 2.889909956343e+02, best bound 2.889909956343e+02, gap 0.0000%



#########node  1
V1.6
#########node  2
0.0,1.0
#########node  3
1.0,0.0


Total Solving Time 0.7349321842193604
obj value 288.99099563426694
Policy Regret train (Sum) 1.2397053270686504
Best Treatment Found train (%) 86.8
treatment classification acc train (%) 30.4
Policy Regret test (Sum) 26.7565594125534
Best Treatment Found test (%) 84.76
treatment classification acc test (%) 30.89
Set parameter TokenServer to value "hpc-licenses.hpcc.usc.edu"
Set parameter TimeLimit to value 3600
Gurobi Optimizer version 9.5.1 build v9.5.1rc2 (linux64)
Thread count: 20 physical cores, 20 logical processors, using up to 20 threads
Optimize a model with 6006 rows, 4529 columns and 23034 nonzeros
Model fingerprint: 0x247c576c
Variable types: 4506 continuous, 23 integer (23 binary)
Coefficient statistics:
  Matrix range     [1e+00, 1e+00]
  Objective range  [2e-03, 1e+00]
  Bounds range     [1e+00, 1e+00]
  RHS range        [1e+00, 1e+00]
Found heuristic solution: objective 273.3127240
Presolve removed 1520 rows and 1515 columns
Presolve time: 0.05s
Presolved: 4486 rows, 3014 columns, 20481 nonzeros
Variable types: 2994 continuous, 20 integer (20 binary)

Root relaxation: objective 2.893256e+02, 2522 iterations, 0.08 seconds (0.12 work units)

    Nodes    |    Current Node    |     Objective Bounds      |     Work
 Expl Unexpl |  Obj  Depth IntInf | Incumbent    BestBd   Gap | It/Node Time

     0     0  289.32561    0    2  273.31272  289.32561  5.86%     -    0s
H    0     0                     278.5278279  289.32561  3.88%     -    0s
H    0     0                     279.2252598  289.32561  3.62%     -    0s
H    0     0                     288.9909956  289.09526  0.04%     -    0s
     0     0  289.09526    0    2  288.99100  289.09526  0.04%     -    0s

Cutting planes:
  Gomory: 3
  MIR: 458
  RLT: 4
  Relax-and-lift: 29

Explored 1 nodes (2588 simplex iterations) in 0.30 seconds (0.26 work units)
Thread count was 20 (of 20 available processors)

Solution count 4: 288.991 279.225 278.528 273.313 

Optimal solution found (tolerance 1.00e-04)
Best objective 2.889909956343e+02, best bound 2.889909956343e+02, gap 0.0000%



#########node  1
V1.6
#########node  2
0.0,1.0
#########node  3
1.0,0.0


Total Solving Time 0.6420247554779053
obj value 288.99099563426694
Policy Regret train (Sum) 1.2397053270686504
Best Treatment Found train (%) 86.8
treatment classification acc train (%) 30.4
Policy Regret test (Sum) 26.7565594125534
Best Treatment Found test (%) 84.76
treatment classification acc test (%) 30.89
